TCS_Benchmarks/redos_fix/regexlib2_output_distinct_974_973_0_0.txt
(\s*)(\s*)
(\s*)((\d{0,2})(\.?(\d*))?)(\s*)